(declare-fun Constructed_Argument_t () String)
(declare-fun Constructed_Argument_2_t () String)
(declare-fun CreateAsClass () Bool)
(declare-fun Constructed_Argument_2_elements_unknown_0_t () String)
(declare-fun Constructed_Argument_2_elements_boolean_1_t () String)
(declare-fun Constructed_Argument_2_elements_boolean_2_t () String)
(declare-fun Constructed_Argument_2_elements_alias_3_t () String)
(declare-fun Constructed_Argument_2_elements_alias_3 () String)
(declare-fun Constructed_Argument_2_elements_alias_4_t () String)
(declare-fun Constructed_Argument_2_elements_alias_4_Array_Length () Int)
(declare-fun Constructed_Argument_2_elements_string_5_t () String)
(define-funs-rec ( ( str.repeat ((x!1 String) (x!2 Int)) String)
                   ( str.whiteLeft ((x!1 String) (x!2 Int)) Int)
                   ( str.whiteRight ((x!1 String) (x!2 Int)) Int))
                 ( (ite (<= x!2 0)
                        ""
                        (str.++ x!1 ((_ str.repeat 0) x!1 (- x!2 1))))
                   (ite (= (str.at x!1 x!2) " ")
                        ((_ str.whiteLeft 0) x!1 (+ x!2 1))
                        x!2)
                   (ite (= (str.at x!1 x!2) " ")
                        ((_ str.whiteRight 0) x!1 (- x!2 1))
                        x!2)))
(assert (not (= Constructed_Argument_t
        (str.++ (seq.unit #x73)
                (seq.unit #x74)
                (seq.unit #x72)
                (seq.unit #x69)
                (seq.unit #x6e)
                (seq.unit #x67)))))
(assert (not (= Constructed_Argument_t
        (str.++ (seq.unit #x6e)
                (seq.unit #x75)
                (seq.unit #x6d)
                (seq.unit #x62)
                (seq.unit #x65)
                (seq.unit #x72)))))
(assert (not (= Constructed_Argument_t
        (str.++ (seq.unit #x62)
                (seq.unit #x6f)
                (seq.unit #x6f)
                (seq.unit #x6c)
                (seq.unit #x65)
                (seq.unit #x61)
                (seq.unit #x6e)))))
(assert (not (= Constructed_Argument_t
        (str.++ (seq.unit #x6f)
                (seq.unit #x62)
                (seq.unit #x6a)
                (seq.unit #x65)
                (seq.unit #x63)
                (seq.unit #x74)))))
(assert (not (= Constructed_Argument_t
        (str.++ (seq.unit #x61)
                (seq.unit #x72)
                (seq.unit #x72)
                (seq.unit #x61)
                (seq.unit #x79)
                (seq.unit #x5f)
                (seq.unit #x6e)
                (seq.unit #x75)
                (seq.unit #x6d)
                (seq.unit #x62)
                (seq.unit #x65)
                (seq.unit #x72)))))
(assert (not (= Constructed_Argument_t
        (str.++ (seq.unit #x61)
                (seq.unit #x72)
                (seq.unit #x72)
                (seq.unit #x61)
                (seq.unit #x79)
                (seq.unit #x5f)
                (seq.unit #x73)
                (seq.unit #x74)
                (seq.unit #x72)
                (seq.unit #x69)
                (seq.unit #x6e)
                (seq.unit #x67)))))
(assert (not (= Constructed_Argument_t
        (str.++ (seq.unit #x61)
                (seq.unit #x72)
                (seq.unit #x72)
                (seq.unit #x61)
                (seq.unit #x79)
                (seq.unit #x5f)
                (seq.unit #x62)
                (seq.unit #x6f)
                (seq.unit #x6f)
                (seq.unit #x6c)))))
(assert (not (= Constructed_Argument_t
        (str.++ (seq.unit #x6e) (seq.unit #x75) (seq.unit #x6c) (seq.unit #x6c)))))
(assert (= Constructed_Argument_2_t
   (str.++ (seq.unit #x6f)
           (seq.unit #x62)
           (seq.unit #x6a)
           (seq.unit #x65)
           (seq.unit #x63)
           (seq.unit #x74))))
(assert (not CreateAsClass))
(assert (= Constructed_Argument_2_elements_unknown_0_t
   (str.++ (seq.unit #x73)
           (seq.unit #x74)
           (seq.unit #x72)
           (seq.unit #x69)
           (seq.unit #x6e)
           (seq.unit #x67))))
(assert (not (= Constructed_Argument_2_elements_boolean_1_t
        (str.++ (seq.unit #x73)
                (seq.unit #x74)
                (seq.unit #x72)
                (seq.unit #x69)
                (seq.unit #x6e)
                (seq.unit #x67)))))
(assert (not (= Constructed_Argument_2_elements_boolean_1_t
        (str.++ (seq.unit #x6e)
                (seq.unit #x75)
                (seq.unit #x6d)
                (seq.unit #x62)
                (seq.unit #x65)
                (seq.unit #x72)))))
(assert (not (= Constructed_Argument_2_elements_boolean_1_t
        (str.++ (seq.unit #x62)
                (seq.unit #x6f)
                (seq.unit #x6f)
                (seq.unit #x6c)
                (seq.unit #x65)
                (seq.unit #x61)
                (seq.unit #x6e)))))
(assert (not (= Constructed_Argument_2_elements_boolean_1_t
        (str.++ (seq.unit #x6f)
                (seq.unit #x62)
                (seq.unit #x6a)
                (seq.unit #x65)
                (seq.unit #x63)
                (seq.unit #x74)))))
(assert (not (= Constructed_Argument_2_elements_boolean_1_t
        (str.++ (seq.unit #x61)
                (seq.unit #x72)
                (seq.unit #x72)
                (seq.unit #x61)
                (seq.unit #x79)
                (seq.unit #x5f)
                (seq.unit #x6e)
                (seq.unit #x75)
                (seq.unit #x6d)
                (seq.unit #x62)
                (seq.unit #x65)
                (seq.unit #x72)))))
(assert (not (= Constructed_Argument_2_elements_boolean_1_t
        (str.++ (seq.unit #x61)
                (seq.unit #x72)
                (seq.unit #x72)
                (seq.unit #x61)
                (seq.unit #x79)
                (seq.unit #x5f)
                (seq.unit #x73)
                (seq.unit #x74)
                (seq.unit #x72)
                (seq.unit #x69)
                (seq.unit #x6e)
                (seq.unit #x67)))))
(assert (not (= Constructed_Argument_2_elements_boolean_1_t
        (str.++ (seq.unit #x61)
                (seq.unit #x72)
                (seq.unit #x72)
                (seq.unit #x61)
                (seq.unit #x79)
                (seq.unit #x5f)
                (seq.unit #x62)
                (seq.unit #x6f)
                (seq.unit #x6f)
                (seq.unit #x6c)))))
(assert (not (= Constructed_Argument_2_elements_boolean_1_t
        (str.++ (seq.unit #x6e) (seq.unit #x75) (seq.unit #x6c) (seq.unit #x6c)))))
(assert (not (= Constructed_Argument_2_elements_boolean_2_t
        (str.++ (seq.unit #x73)
                (seq.unit #x74)
                (seq.unit #x72)
                (seq.unit #x69)
                (seq.unit #x6e)
                (seq.unit #x67)))))
(assert (not (= Constructed_Argument_2_elements_boolean_2_t
        (str.++ (seq.unit #x6e)
                (seq.unit #x75)
                (seq.unit #x6d)
                (seq.unit #x62)
                (seq.unit #x65)
                (seq.unit #x72)))))
(assert (not (= Constructed_Argument_2_elements_boolean_2_t
        (str.++ (seq.unit #x62)
                (seq.unit #x6f)
                (seq.unit #x6f)
                (seq.unit #x6c)
                (seq.unit #x65)
                (seq.unit #x61)
                (seq.unit #x6e)))))
(assert (not (= Constructed_Argument_2_elements_boolean_2_t
        (str.++ (seq.unit #x6f)
                (seq.unit #x62)
                (seq.unit #x6a)
                (seq.unit #x65)
                (seq.unit #x63)
                (seq.unit #x74)))))
(assert (not (= Constructed_Argument_2_elements_boolean_2_t
        (str.++ (seq.unit #x61)
                (seq.unit #x72)
                (seq.unit #x72)
                (seq.unit #x61)
                (seq.unit #x79)
                (seq.unit #x5f)
                (seq.unit #x6e)
                (seq.unit #x75)
                (seq.unit #x6d)
                (seq.unit #x62)
                (seq.unit #x65)
                (seq.unit #x72)))))
(assert (not (= Constructed_Argument_2_elements_boolean_2_t
        (str.++ (seq.unit #x61)
                (seq.unit #x72)
                (seq.unit #x72)
                (seq.unit #x61)
                (seq.unit #x79)
                (seq.unit #x5f)
                (seq.unit #x73)
                (seq.unit #x74)
                (seq.unit #x72)
                (seq.unit #x69)
                (seq.unit #x6e)
                (seq.unit #x67)))))
(assert (not (= Constructed_Argument_2_elements_boolean_2_t
        (str.++ (seq.unit #x61)
                (seq.unit #x72)
                (seq.unit #x72)
                (seq.unit #x61)
                (seq.unit #x79)
                (seq.unit #x5f)
                (seq.unit #x62)
                (seq.unit #x6f)
                (seq.unit #x6f)
                (seq.unit #x6c)))))
(assert (not (= Constructed_Argument_2_elements_boolean_2_t
        (str.++ (seq.unit #x6e) (seq.unit #x75) (seq.unit #x6c) (seq.unit #x6c)))))
(assert (= Constructed_Argument_2_elements_alias_3_t
   (str.++ (seq.unit #x73)
           (seq.unit #x74)
           (seq.unit #x72)
           (seq.unit #x69)
           (seq.unit #x6e)
           (seq.unit #x67))))
(assert (not (= "" Constructed_Argument_2_elements_alias_3)))
(assert (= Constructed_Argument_2_elements_alias_4_t
   (str.++ (seq.unit #x61)
           (seq.unit #x72)
           (seq.unit #x72)
           (seq.unit #x61)
           (seq.unit #x79)
           (seq.unit #x5f)
           (seq.unit #x6e)
           (seq.unit #x75)
           (seq.unit #x6d)
           (seq.unit #x62)
           (seq.unit #x65)
           (seq.unit #x72))))
(assert (>= Constructed_Argument_2_elements_alias_4_Array_Length 0))
(assert (not (= Constructed_Argument_2_elements_string_5_t
        (str.++ (seq.unit #x73)
                (seq.unit #x74)
                (seq.unit #x72)
                (seq.unit #x69)
                (seq.unit #x6e)
                (seq.unit #x67)))))
(assert (not (= Constructed_Argument_2_elements_string_5_t
        (str.++ (seq.unit #x6e)
                (seq.unit #x75)
                (seq.unit #x6d)
                (seq.unit #x62)
                (seq.unit #x65)
                (seq.unit #x72)))))
(assert (not (= Constructed_Argument_2_elements_string_5_t
        (str.++ (seq.unit #x62)
                (seq.unit #x6f)
                (seq.unit #x6f)
                (seq.unit #x6c)
                (seq.unit #x65)
                (seq.unit #x61)
                (seq.unit #x6e)))))
(assert (not (= Constructed_Argument_2_elements_string_5_t
        (str.++ (seq.unit #x6f)
                (seq.unit #x62)
                (seq.unit #x6a)
                (seq.unit #x65)
                (seq.unit #x63)
                (seq.unit #x74)))))
(assert (not (= Constructed_Argument_2_elements_string_5_t
        (str.++ (seq.unit #x61)
                (seq.unit #x72)
                (seq.unit #x72)
                (seq.unit #x61)
                (seq.unit #x79)
                (seq.unit #x5f)
                (seq.unit #x6e)
                (seq.unit #x75)
                (seq.unit #x6d)
                (seq.unit #x62)
                (seq.unit #x65)
                (seq.unit #x72)))))
(assert (not (= Constructed_Argument_2_elements_string_5_t
        (str.++ (seq.unit #x61)
                (seq.unit #x72)
                (seq.unit #x72)
                (seq.unit #x61)
                (seq.unit #x79)
                (seq.unit #x5f)
                (seq.unit #x73)
                (seq.unit #x74)
                (seq.unit #x72)
                (seq.unit #x69)
                (seq.unit #x6e)
                (seq.unit #x67)))))
(assert (not (= Constructed_Argument_2_elements_string_5_t
        (str.++ (seq.unit #x61)
                (seq.unit #x72)
                (seq.unit #x72)
                (seq.unit #x61)
                (seq.unit #x79)
                (seq.unit #x5f)
                (seq.unit #x62)
                (seq.unit #x6f)
                (seq.unit #x6f)
                (seq.unit #x6c)))))
(assert (= Constructed_Argument_2_elements_string_5_t
   (str.++ (seq.unit #x6e) (seq.unit #x75) (seq.unit #x6c) (seq.unit #x6c))))

(check-sat)